NAME: easy25
TYPE: TSP
COMMENT: 25-node test TSP
DIMENSION: 25
EDGE_WEIGHT_TYPE: EUC_2D
NODE_COORD_SECTION
1 10.0 20.0
2 20.0 30.0
3 15.0 5.0
4 40.0 10.0
5 25.0 25.0
6 30.0 30.0
7 50.0 50.0
8 60.0 20.0
9 45.0 40.0
10 55.0 60.0
11 70.0 10.0
12 65.0 25.0
13 80.0 30.0
14 85.0 50.0
15 90.0 20.0
16 35.0 55.0
17 20.0 60.0
18 10.0 50.0
19 5.0 25.0
20 25.0 5.0
21 40.0 35.0
22 50.0 15.0
23 60.0 50.0
24 70.0 40.0
25 80.0 60.0
EOF